
        $ From http://www.csplib.org/Problems/prob009/data/helmut.pdf
        $ Problem number 200
        $ Sequence length : 25
        language ESSENCE' 1.0
        letting sizemaster be 609
        letting sizes be sequence(9,14,15,17,32,45,47,58,67,74,76,79,80,83,97,111,125,126,150,170,186,188,215,224,235)
        